Graphene 2D unit cell
1.0 
2.467112417 0.000000000 0.000000000
-1.233556158 2.136582070 0.000000000
0.000000000 0.000000000 7.101434991
C
2
Direct
0.000000 0.000000 0.000000
0.333333 0.666666 0.000000
